
******************************************************************************
This program contains Ipopt, a library for large-scale nonlinear optimization.
 Ipopt is released as open source code under the Eclipse Public License (EPL).
         For more information visit http://projects.coin-or.org/Ipopt

This version of Ipopt was compiled from source code available at
    https://github.com/IDAES/Ipopt as part of the Institute for the Design of
    Advanced Energy Systems Process Systems Engineering Framework (IDAES PSE
    Framework) Copyright (c) 2018-2019. See https://github.com/IDAES/idaes-pse.

This version of Ipopt was compiled using HSL, a collection of Fortran codes
    for large-scale scientific computation.  All technical papers, sales and
    publicity material resulting from use of the HSL codes within IPOPT must
    contain the following acknowledgement:
        HSL, a collection of Fortran codes for large-scale scientific
        computation. See http://www.hsl.rl.ac.uk.
******************************************************************************

This is Ipopt version 3.13.2, running with linear solver ma27.

Number of nonzeros in equality constraint Jacobian...:      928
Number of nonzeros in inequality constraint Jacobian.:        0
Number of nonzeros in Lagrangian Hessian.............:      806

Total number of variables............................:      403
                     variables with only lower bounds:      124
                variables with lower and upper bounds:      217
                     variables with only upper bounds:        0
Total number of equality constraints.................:      402
Total number of inequality constraints...............:        0
        inequality constraints with only lower bounds:        0
   inequality constraints with lower and upper bounds:        0
        inequality constraints with only upper bounds:        0

iter    objective    inf_pr   inf_du lg(mu)  ||d||  lg(rg) alpha_du alpha_pr  ls
   0  0.0000000e+00 8.67e-01 2.97e-13  -1.0 0.00e+00    -  0.00e+00 0.00e+00   0
   1  6.4615949e-01 8.46e-01 4.15e+04  -1.0 1.63e+07    -  1.28e-02 3.22e-03h  5
   2  1.0917255e+00 8.43e-01 4.45e+04  -1.0 1.91e+07    -  1.23e-02 9.53e-04h  7
   3  1.2448757e+00 8.43e-01 4.47e+04  -1.0 2.08e+07    -  1.19e-02 2.77e-04h  9
   4  1.3934481e+00 8.43e-01 4.48e+04  -1.0 2.30e+07    -  1.13e-02 2.53e-04h  9
   5  1.2829165e+02 6.49e-01 5.10e+06  -1.0 2.62e+07    -  1.34e-02 2.87e-02h  2
   6  1.3716293e+02 6.49e-01 5.10e+06  -1.0 3.88e+07    -  1.86e-02 7.43e-04h  6
   7  6.0695787e+02 6.96e-01 6.74e+06  -1.0 4.19e+07    -  1.78e-02 2.17e-02h  1
   8  6.1473120e+02 6.95e-01 6.74e+06  -1.0 4.33e+07    -  3.99e-02 2.59e-04h  1
   9  6.1353239e+02 6.95e-01 6.74e+06  -1.0 1.20e+08    -  1.62e-02 3.28e-05f  1
iter    objective    inf_pr   inf_du lg(mu)  ||d||  lg(rg) alpha_du alpha_pr  ls
  10  5.8716415e+02 6.95e-01 6.76e+06  -1.0 1.29e+08    -  1.39e-02 6.69e-04f  4
  11  5.8655371e+02 6.95e-01 7.99e+08  -1.0 1.93e+08    -  1.48e-02 1.64e-05f  2
  12  5.7178107e+02 6.95e-01 7.98e+08  -1.0 1.25e+08    -  1.75e-02 4.08e-04f  5
  13  5.7159527e+02 6.95e-01 2.52e+09  -1.0 1.47e+08    -  1.89e-02 5.33e-06f 11
  14  5.7049657e+02 6.95e-01 1.03e+10  -1.0 1.23e+08    -  1.25e-02 3.11e-05f  8
  15  5.2595710e+02 3.27e+01 2.24e+11  -1.0 1.23e+08    -  2.04e-02 6.28e-03f  1
  16  4.4721829e+02 3.48e+01 2.23e+11  -1.0 1.02e+08    -  2.18e-02 5.87e-03f  1
  17  3.9580122e+02 5.02e+01 2.22e+11  -1.0 1.31e+08    -  1.78e-02 6.59e-03f  1
  18  3.5681436e+02 5.27e+01 2.21e+11  -1.0 1.38e+08    -  1.80e-02 5.47e-03f  1
  19  3.5051408e+02 6.60e+01 2.28e+11  -1.0 1.33e+08    -  1.75e-02 1.12e-02f  1
iter    objective    inf_pr   inf_du lg(mu)  ||d||  lg(rg) alpha_du alpha_pr  ls
  20  3.5058017e+02 6.57e+01 2.31e+11  -1.0 3.40e+08    -  7.75e-03 3.83e-03f  1
  21  7.1488487e+02 6.46e+01 3.24e+11  -1.0 5.88e+07    -  1.86e-02 1.78e-02h  5
  22  1.6779930e+03 6.37e+01 5.09e+11  -1.0 1.14e+08    -  1.97e-02 1.35e-02h  5
  23  1.7826114e+03 6.37e+01 5.09e+11  -1.0 2.91e+08    -  1.38e-02 6.54e-04h  6
  24  1.7892776e+03 6.37e+01 5.09e+11  -1.0 3.69e+08    -  1.14e-02 3.57e-05h 10
  25  1.7968240e+03 6.37e+01 5.09e+11  -1.0 3.79e+08    -  1.12e-02 3.53e-05h 10
  26r 1.7968240e+03 6.37e+01 1.00e+03   1.8 0.00e+00    -  0.00e+00 3.33e-07R 14
  27r 1.7968222e+03 1.59e+01 9.94e+02   1.8 1.24e+04    -  9.96e-03 3.85e-03f  1
  28r 1.7968222e+03 1.59e+01 9.99e+02   1.2 0.00e+00    -  0.00e+00 1.24e-07R  2
  29r 1.7968212e+03 4.32e+00 9.97e+02   1.2 1.11e+04    -  1.50e-02 1.42e-03f  1
iter    objective    inf_pr   inf_du lg(mu)  ||d||  lg(rg) alpha_du alpha_pr  ls
  30  1.7991817e+03 4.32e+00 1.61e+03  -1.0 2.17e+08    -  1.93e-02 1.50e-05h  9
  31  5.2715424e+03 1.52e+02 3.29e+05  -1.0 2.18e+08    -  1.55e-02 1.55e-02s 16
  32  6.3637252e+03 1.52e+02 3.39e+05  -1.0 5.27e+09    -  3.59e-04 3.59e-04s 16
  33r 6.3637252e+03 1.52e+02 1.00e+03   2.2 0.00e+00    -  0.00e+00 0.00e+00R  1
  34r 6.3637265e+03 4.12e+00 1.00e+03   2.2 1.36e+04    -  1.57e-04 1.11e-02f  1
  35  7.6930342e+03 4.10e+00 1.42e+09  -1.0 4.42e+08    -  8.91e-07 5.23e-03h  3
  36  1.1398481e+04 4.04e+00 1.40e+09  -1.0 4.72e+08    -  1.39e-02 1.51e-02h  3
  37  1.2587264e+05 9.23e+00 1.65e+09  -1.0 7.01e+08    -  1.91e-02 6.87e-02h  2
  38  1.6397154e+05 8.51e+00 1.61e+09  -1.0 1.17e+08    -  1.10e-01 7.76e-02h  2
  39  2.8224743e+05 1.23e+01 2.00e+09  -1.0 8.94e+07    -  2.47e-01 2.51e-01h  2
iter    objective    inf_pr   inf_du lg(mu)  ||d||  lg(rg) alpha_du alpha_pr  ls
  40  2.8243654e+05 1.23e+01 1.99e+09  -1.0 2.94e+08    -  6.32e-03 3.02e-04h  7
  41  2.8268530e+05 1.23e+01 1.99e+09  -1.0 5.12e+08    -  2.85e-02 8.59e-05h  9
  42  2.8285401e+05 1.23e+01 1.99e+09  -1.0 6.51e+08    -  2.93e-02 4.50e-05h 10
  43  2.8300232e+05 1.23e+01 1.99e+09  -1.0 1.00e+09    -  3.19e-02 2.53e-05h 11
  44  2.8313101e+05 1.23e+01 1.99e+09  -1.0 1.45e+09    -  3.62e-02 1.50e-05h 12
  45  8.2268863e+05 3.07e+01 6.89e+09  -1.0 1.83e+09    -  4.82e-02 3.63e-02w  1
  46  9.8890865e+05 5.35e+01 3.26e+10  -1.0 2.12e+08    -  2.02e-01 7.21e-02w  1
  47  1.0207412e+06 5.28e+01 3.22e+10  -1.0 2.14e+08    -  1.63e-01 1.30e-02w  1
  48  2.8467807e+05 1.23e+01 1.99e+09  -1.0 2.11e+08    -  4.82e-02 1.42e-04h  8
  49  4.6238272e+05 1.31e+01 2.20e+09  -1.0 2.27e+09    -  3.94e-02 1.15e-02h  3
iter    objective    inf_pr   inf_du lg(mu)  ||d||  lg(rg) alpha_du alpha_pr  ls
  50  4.2501420e+05 1.53e+01 1.32e+10  -1.0 1.76e+08    -  2.38e-02 1.36e-01f  2
  51  4.2561836e+05 1.53e+01 1.48e+10  -1.0 2.59e+09  -4.0 8.72e-03 1.27e-04h  7
  52r 4.2561836e+05 1.53e+01 9.99e+02   1.2 0.00e+00  -4.5 0.00e+00 4.95e-07R 15
  53r 4.2561836e+05 5.33e+00 9.97e+02   1.2 1.30e+04    -  1.55e-02 1.16e-03f  1
  54  4.3397163e+05 5.33e+00 3.32e+06  -1.0 7.74e+09    -  9.07e-04 2.88e-04h  1
  55  4.3566885e+05 5.32e+00 3.32e+06  -1.0 3.11e+09    -  9.26e-03 4.52e-04h  1
  56r 4.3566885e+05 5.32e+00 9.99e+02   0.7 0.00e+00    -  0.00e+00 3.53e-07R  5
  57r 4.3566885e+05 2.41e+00 9.97e+02   0.7 4.92e+03    -  9.29e-03 1.07e-03f  1
  58r 4.3566885e+05 2.41e+00 9.99e+02   0.4 0.00e+00    -  0.00e+00 4.65e-07R  4
  59r 4.3566885e+05 2.32e+00 9.97e+02   0.4 3.81e+03    -  4.17e-03 1.90e-03f  1
iter    objective    inf_pr   inf_du lg(mu)  ||d||  lg(rg) alpha_du alpha_pr  ls
  60r 4.3566885e+05 2.08e+00 9.95e+02   0.4 6.24e+03    -  1.33e-03 2.37e-03f  1
  61r 4.3566885e+05 2.08e+00 9.99e+02   0.3 0.00e+00    -  0.00e+00 2.50e-07R  5
  62r 4.3566885e+05 2.13e+00 9.96e+02   0.3 1.03e+04    -  3.68e-03 3.03e-03f  1
  63r 4.3566885e+05 2.12e+00 9.93e+02   0.3 3.24e+03    -  2.64e-03 2.60e-03f  1
  64r 4.3566885e+05 2.11e+00 9.89e+02   0.3 3.48e+03    -  5.26e-03 4.71e-03f  1
  65r 4.3566885e+05 2.09e+00 9.83e+02   0.3 4.40e+03    -  5.19e-03 7.34e-03f  1
  66r 4.3566885e+05 2.08e+00 9.77e+02   0.3 1.58e+03    -  9.82e-03 3.34e-03f  1
  67r 4.3566886e+05 2.05e+00 9.66e+02   0.3 1.32e+03    -  1.93e-02 1.11e-02f  1
  68r 4.3566886e+05 2.04e+00 9.63e+02   0.3 2.22e+03    -  1.15e-03 5.16e-03f  1
  69r 4.3566886e+05 2.02e+00 9.51e+02   0.3 8.45e+02    -  2.40e-02 7.07e-03f  1
iter    objective    inf_pr   inf_du lg(mu)  ||d||  lg(rg) alpha_du alpha_pr  ls
  70r 4.3566888e+05 1.95e+00 9.20e+02   0.3 8.52e+02    -  3.99e-02 3.33e-02f  1
  71r 4.3566888e+05 1.75e+00 1.34e+03   0.3 9.65e-01   4.0 3.54e-02 1.39e-01f  1
  72  4.3631356e+05 1.75e+00 3.21e+03  -1.0 3.79e+09    -  7.53e-03 2.18e-05h  1
  73  4.4251623e+05 1.75e+00 4.77e+03  -1.0 5.34e+09    -  2.41e-03 1.44e-04h  6
  74  4.4366945e+05 1.75e+00 6.54e+03  -1.0 5.38e+09    -  2.52e-03 2.65e-05h  9
  75r 4.4366945e+05 1.75e+00 1.00e+03   0.2 0.00e+00    -  0.00e+00 2.80e-07R 16
  76r 4.4366945e+05 4.16e-01 9.96e+02   0.2 1.73e+03    -  1.87e-02 1.00e-03f  1
  77r 4.4366945e+05 4.16e-01 9.99e+02  -0.4 0.00e+00    -  0.00e+00 2.96e-07R 12
  78r 4.4366946e+05 4.14e-01 9.89e+02  -0.4 2.05e+03    -  1.31e-02 9.52e-03f  1
  79r 4.4366946e+05 4.13e-01 9.77e+02  -0.4 1.05e+01   0.0 2.99e-02 1.21e-02f  1
iter    objective    inf_pr   inf_du lg(mu)  ||d||  lg(rg) alpha_du alpha_pr  ls
  80r 4.4366946e+05 4.12e-01 9.73e+02  -0.4 1.28e+03    -  5.76e-04 5.84e-03f  1
  81r 4.4366946e+05 4.11e-01 9.68e+02  -0.4 9.57e+02    -  3.22e-02 3.70e-03f  1
  82r 4.4366946e+05 4.05e-01 9.39e+02  -0.4 8.93e+02    -  2.23e-02 2.97e-02f  1
  83r 4.4366946e+05 3.92e-01 8.45e+02  -0.4 8.78e+02    -  3.01e-01 1.01e-01f  1
  84r 4.4366946e+05 3.93e-01 1.20e+03  -0.4 7.07e+02    -  1.79e-01 8.50e-04f  1
  85r 4.4366947e+05 1.32e+01 8.46e+02  -0.4 6.77e+02    -  4.42e-01 1.44e-01f  1
  86r 4.4366950e+05 4.02e+01 6.45e+02  -0.4 5.88e+02    -  7.77e-01 1.07e-01f  1
  87r 4.4366956e+05 3.59e+01 6.35e+02  -0.4 5.20e+02    -  1.50e-02 1.07e-01f  1
  88r 4.4366957e+05 1.34e+01 4.30e+02  -0.4 4.70e+02    -  1.89e-01 1.00e+00f  1
  89r 4.4366961e+05 4.16e+01 4.62e+02  -0.4 2.97e+02    -  2.55e-01 1.80e-01f  1
iter    objective    inf_pr   inf_du lg(mu)  ||d||  lg(rg) alpha_du alpha_pr  ls
  90r 4.4366961e+05 3.97e+01 4.47e+02  -0.4 1.35e+02    -  2.05e-02 4.46e-02h  1
  91r 4.4366961e+05 2.95e+01 6.08e+02  -0.4 1.62e+02    -  8.10e-02 2.57e-01h  1
  92r 4.4366959e+05 2.01e+01 2.16e+02  -0.4 8.53e+01    -  9.36e-01 3.19e-01f  1
  93r 4.4366956e+05 1.45e+01 3.39e+02  -0.4 2.62e+01    -  1.45e-01 1.00e+00h  1
  94r 4.4366952e+05 1.44e+01 4.86e+02  -0.4 1.31e+04    -  6.76e-04 6.61e-03f  1
  95r 4.4366952e+05 1.40e+01 4.97e+02  -0.4 1.43e+01   3.1 2.52e-02 2.54e-02h  1
  96r 4.4366952e+05 1.01e+01 3.25e+03  -0.4 1.31e+01   2.7 9.39e-04 2.98e-01h  1
  97r 4.4366952e+05 7.28e+00 6.72e+03  -0.4 6.28e+00   3.1 1.14e-01 7.94e-01h  1
  98r 4.4366952e+05 6.45e+00 3.85e+03  -0.4 1.19e+00   3.5 9.76e-02 1.00e+00h  1
  99r 4.4366952e+05 6.44e+00 2.14e+03  -0.4 6.93e-02   3.9 2.07e-01 4.22e-01f  1
iter    objective    inf_pr   inf_du lg(mu)  ||d||  lg(rg) alpha_du alpha_pr  ls
 100r 4.4366952e+05 6.43e+00 1.44e+03  -0.4 3.38e-02   4.4 5.35e-01 1.00e+00f  1
 101r 4.4366952e+05 6.43e+00 1.48e+03  -0.4 1.05e-01   3.9 1.00e+00 2.20e-01f  1
 102r 4.4366952e+05 6.36e+00 5.96e+02  -0.4 2.33e-01   3.4 1.00e+00 8.65e-01f  1
 103r 4.4366950e+05 4.64e-01 5.96e+02  -0.4 7.43e+04    -  1.59e-04 1.10e-04f  1
 104r 4.4366950e+05 4.64e-01 7.28e+02  -0.4 4.89e+02    -  3.56e-01 1.59e-04f  1
 105r 4.4366955e+05 2.03e+01 6.67e+02  -0.4 4.72e+02    -  1.34e-01 1.64e-01f  1
 106r 4.4366939e+05 6.08e+00 3.61e+02  -0.4 3.92e+02    -  1.00e+00 7.01e-01h  1
 107r 4.4366938e+05 1.88e+00 1.22e+02  -0.4 9.33e+01    -  6.13e-01 6.90e-01f  1
 108r 4.4366934e+05 4.01e-01 2.21e+00  -0.4 4.50e+01    -  1.00e+00 1.00e+00f  1
 109r 4.4366935e+05 3.91e-01 2.47e+01  -1.8 2.15e+01    -  8.91e-01 7.93e-01f  1
iter    objective    inf_pr   inf_du lg(mu)  ||d||  lg(rg) alpha_du alpha_pr  ls
 110r 4.4366932e+05 3.85e-01 2.63e+02  -1.8 4.10e+03    -  9.80e-01 2.27e-01f  1
 111r 4.4366930e+05 3.84e-01 5.95e+02  -1.8 3.13e+03    -  1.00e+00 5.37e-02f  1
 112r 4.4366886e+05 3.71e-01 3.12e+01  -1.8 2.95e+03    -  1.00e+00 9.54e-01f  1
 113  4.3450373e+05 1.56e+01 1.67e+05  -1.0 1.13e+09    -  2.01e-02 1.14e-02H  1
 114  4.2890812e+05 1.54e+01 2.07e+05  -1.0 3.13e+08    -  6.65e-02 1.52e-02f  1
 115  4.2890453e+05 1.54e+01 2.07e+05  -1.0 5.32e+08    -  3.02e-01 1.52e-04f  1
 116r 4.2890453e+05 1.54e+01 1.00e+03   1.2 0.00e+00    -  0.00e+00 2.72e-07R  5
 117r 4.2890453e+05 5.59e-01 9.97e+02   1.2 9.41e+03    -  4.81e-03 1.62e-03f  1
 118r 4.2890453e+05 5.59e-01 9.99e+02  -0.3 0.00e+00    -  0.00e+00 2.96e-07R  6
 119r 4.2890453e+05 4.90e-01 9.95e+02  -0.3 7.51e+02    -  4.32e-03 3.53e-03f  1
iter    objective    inf_pr   inf_du lg(mu)  ||d||  lg(rg) alpha_du alpha_pr  ls
 120  4.2890930e+05 4.90e-01 1.69e+03  -1.0 5.28e+08    -  4.63e-02 2.72e-05h  1
 121r 4.2890930e+05 4.90e-01 9.99e+02  -0.3 0.00e+00    -  0.00e+00 3.65e-07R  4
 122r 4.2890930e+05 3.53e-01 9.97e+02  -0.3 7.37e+02    -  2.51e-03 2.32e-03f  1
 123r 4.2890930e+05 3.53e-01 9.99e+02  -0.5 0.00e+00    -  0.00e+00 1.68e-07R  2
 124r 4.2890930e+05 3.53e-01 9.97e+02  -0.5 4.49e+02    -  2.52e-03 1.90e-03f  1
 125r 4.2890930e+05 3.53e-01 9.95e+02  -0.5 4.03e+02    -  2.07e-02 2.50e-03f  1
 126r 4.2890930e+05 3.53e-01 9.72e+02  -0.5 4.49e+00   2.0 4.80e-02 2.55e-02f  1
 127r 4.2890930e+05 3.53e-01 1.03e+03  -0.5 7.09e+00   2.4 1.68e-01 1.37e-02f  1
 128r 4.2890930e+05 5.96e+00 8.84e+02  -0.5 4.67e+02    -  6.42e-01 9.45e-02f  1
 129r 4.2890932e+05 1.61e+01 6.43e+02  -0.5 7.00e+02    -  3.85e-01 2.69e-01f  1
iter    objective    inf_pr   inf_du lg(mu)  ||d||  lg(rg) alpha_du alpha_pr  ls
 130r 4.2890935e+05 4.01e+01 5.48e+02  -0.5 6.63e+02    -  6.62e-03 1.52e-01f  1
 131r 4.2890933e+05 3.62e+01 4.97e+02  -0.5 5.82e+02    -  2.54e-02 9.76e-02f  1
 132r 4.2890927e+05 2.64e+01 4.54e+02  -0.5 5.40e+02    -  3.89e-01 2.71e-01f  1
 133r 4.2890924e+05 1.72e+01 8.97e+02  -0.5 4.67e+02    -  5.02e-01 6.66e-01h  1
 134r 4.2890926e+05 2.47e+01 8.34e+02  -0.5 5.63e+02    -  1.34e-01 6.32e-02f  2
 135r 4.2890924e+05 2.11e+01 6.33e+02  -0.5 1.13e+02    -  8.31e-01 1.43e-01h  1
 136r 4.2890917e+05 1.58e+01 8.20e+02  -0.5 2.07e+02    -  9.90e-01 1.00e+00h  1
 137r 4.2890921e+05 2.00e+01 6.84e+02  -0.5 5.04e+02    -  2.21e-01 9.81e-02f  2
 138r 4.2890919e+05 1.84e+01 5.31e+02  -0.5 1.09e+02    -  7.83e-01 2.19e-01h  1
 139r 4.2890920e+05 1.87e+01 5.26e+02  -0.5 1.23e+03    -  2.29e-02 9.50e-03f  4
iter    objective    inf_pr   inf_du lg(mu)  ||d||  lg(rg) alpha_du alpha_pr  ls
 140r 4.2890925e+05 1.59e+01 4.74e+02  -0.5 9.72e+02    -  1.45e-01 1.50e-01h  1
 141r 4.2890917e+05 9.47e+00 9.96e+02  -0.5 8.93e+01    -  9.90e-01 1.00e+00h  1
 142r 4.2890918e+05 1.01e+01 9.39e+02  -0.5 2.19e+02    -  5.84e-01 4.81e-02f  3
 143r 4.2890918e+05 9.88e+00 1.07e+03  -0.5 2.06e+02    -  9.46e-01 1.81e-02h  5
 144r 4.2890918e+05 9.86e+00 9.06e+02  -0.5 1.17e+02    -  1.00e+00 1.47e-02h  6
 145r 4.2890924e+05 5.23e+00 9.79e+02  -0.5 1.18e+02    -  1.80e-01 4.24e-01H  1
 146r 4.2890919e+05 2.84e+00 1.12e+03  -0.5 1.27e+02    -  1.00e+00 4.57e-01h  1
 147r 4.2890917e+05 5.28e+00 1.39e+03  -0.5 2.72e+02    -  6.51e-01 1.06e-01f  3
 148r 4.2890918e+05 4.85e+00 9.51e+02  -0.5 2.28e+02    -  2.80e-01 1.26e-02F  1
 149r 4.2890916e+05 1.04e+01 6.92e+02  -0.5 7.83e+01    -  8.21e-01 1.00e+00f  1
iter    objective    inf_pr   inf_du lg(mu)  ||d||  lg(rg) alpha_du alpha_pr  ls
 150r 4.2890920e+05 2.03e+01 5.98e+02  -0.5 2.14e+02    -  3.75e-01 9.96e-02f  2
 151r 4.2890919e+05 1.75e+01 5.40e+02  -0.5 8.27e+01    -  7.82e-01 1.38e-01h  2
 152r 4.2890919e+05 1.57e+01 7.21e+02  -0.5 4.99e+01    -  1.00e+00 1.03e-01h  4
 153r 4.2890919e+05 1.47e+01 7.07e+02  -0.5 5.35e+01    -  1.00e+00 6.25e-02h  5
 154r 4.2890919e+05 1.42e+01 6.86e+02  -0.5 5.03e+01    -  1.00e+00 3.12e-02h  6
 155r 4.2890919e+05 1.40e+01 5.94e+02  -0.5 4.72e+01    -  1.00e+00 1.25e-01h  4
 156r 4.2890924e+05 4.10e+01 9.73e+02  -0.5 2.94e+02    -  2.74e-01 1.02e-01f  1
 157r 4.2890924e+05 3.72e+01 8.55e+02  -0.5 3.45e+02    -  1.29e-02 9.24e-02h  1
 158r 4.2890927e+05 2.98e+01 9.07e+02  -0.5 5.57e+02    -  2.14e-01 2.00e-01h  2
 159r 4.2890927e+05 2.90e+01 8.82e+02  -0.5 3.92e+02    -  5.39e-01 2.55e-02h  1
iter    objective    inf_pr   inf_du lg(mu)  ||d||  lg(rg) alpha_du alpha_pr  ls
 160r 4.2890916e+05 1.19e+01 7.12e+02  -0.5 6.06e+01    -  9.47e-01 1.00e+00h  1
 161r 4.2890922e+05 3.99e+01 4.08e+02  -0.5 2.73e+02    -  4.42e-01 1.82e-01f  1
 162r 4.2890923e+05 3.31e+01 6.89e+02  -0.5 3.20e+02    -  1.39e-02 1.70e-01h  1
 163r 4.2890929e+05 1.01e+01 2.27e+03  -0.5 4.25e+02    -  2.58e-01 6.95e-01h  1
 164r 4.2890929e+05 8.54e+00 2.97e+04  -0.5 6.75e+00   1.9 6.52e-02 1.55e-01f  1
 165r 4.2890928e+05 8.03e+00 2.02e+04  -0.5 7.98e+02    -  1.64e-02 5.89e-02h  1
 166r 4.2890924e+05 7.45e+00 1.86e+03  -0.5 8.90e+02    -  4.04e-01 7.26e-02f  1
 167r 4.2890924e+05 7.20e+00 1.79e+03  -0.5 1.66e+02    -  5.55e-01 3.36e-02h  1
 168r 4.2890927e+05 5.77e-01 5.79e+03  -0.5 1.55e+02    -  6.03e-01 1.00e+00f  1
 169r 4.2890927e+05 3.26e-01 1.66e+03  -0.5 5.77e-01   1.5 9.06e-01 7.77e-01f  1
iter    objective    inf_pr   inf_du lg(mu)  ||d||  lg(rg) alpha_du alpha_pr  ls
 170r 4.2890927e+05 3.26e-01 1.43e+03  -0.5 2.40e-01   1.0 2.85e-01 8.40e-02h  1
 171r 4.2890929e+05 1.26e+01 9.22e+02  -0.5 9.88e+01    -  8.24e-03 1.47e-01f  1
 172r 4.2890929e+05 3.27e-01 4.46e+02  -0.5 8.46e+00   0.5 1.00e+00 1.00e+00h  1
 173r 4.2890928e+05 3.25e-01 4.74e+02  -0.5 2.24e+03    -  9.17e-02 1.03e-02f  2
 174r 4.2890928e+05 3.25e-01 4.39e+02  -0.5 8.10e+01    -  6.61e-01 2.61e-02f  3
 175r 4.2890926e+05 3.24e-01 4.33e+02  -0.5 1.40e+02    -  8.74e-01 2.25e-01H  1
 176r 4.2890926e+05 3.26e-01 1.01e+03  -0.5 1.27e+02    -  5.82e-01 2.26e-01h  2
 177r 4.2890923e+05 3.23e-01 4.84e+02  -0.5 1.04e+02    -  1.69e-01 2.36e-01f  1
 178r 4.2890925e+05 3.27e-01 9.26e+02  -0.5 2.00e+02    -  4.23e-02 1.94e-01h  1
 179r 4.2890924e+05 3.25e-01 1.64e+03  -0.5 1.00e+03    -  1.55e-03 2.52e-02h  1
iter    objective    inf_pr   inf_du lg(mu)  ||d||  lg(rg) alpha_du alpha_pr  ls
 180r 4.2890924e+05 3.25e-01 1.13e+03  -0.5 4.85e+00   0.0 1.24e-01 6.26e-02h  1
 181r 4.2890924e+05 3.25e-01 6.25e+03  -0.5 1.86e+01    -  1.00e+00 2.24e-03f  6
 182r 4.2890923e+05 3.25e-01 7.45e+03  -0.5 3.23e+02    -  1.00e+00 1.00e+00F  1
 183r 4.2890923e+05 3.23e-01 5.95e+01  -0.5 2.69e+02    -  1.51e-01 1.86e-01h  1
 184r 4.2890924e+05 3.27e-01 3.18e+02  -0.5 1.42e+02    -  8.16e-02 2.94e-01f  1
 185r 4.2890924e+05 3.25e-01 3.06e+02  -0.5 4.67e+02    -  7.47e-03 3.05e-02f  2
 186r 4.2890924e+05 3.25e-01 7.39e+01  -0.5 2.74e-01  -0.4 1.00e+00 1.00e+00H  1
 187r 4.2890923e+05 3.24e-01 5.00e+00  -0.5 3.46e+01    -  1.00e+00 1.00e+00H  1
 188r 4.2890924e+05 3.27e-01 1.01e+03  -1.2 1.10e+02    -  2.78e-01 2.44e-01f  1
 189r 4.2890917e+05 3.26e-01 6.09e+02  -1.2 1.54e+03    -  1.00e+00 5.56e-01f  1
iter    objective    inf_pr   inf_du lg(mu)  ||d||  lg(rg) alpha_du alpha_pr  ls
 190r 4.2890917e+05 3.27e-01 5.79e+02  -1.2 8.96e+02    -  6.89e-02 3.90e-02f  1
 191r 4.2890913e+05 3.25e-01 1.14e+03  -1.2 5.94e+02    -  1.00e+00 5.37e-01f  1
 192r 4.2890908e+05 3.25e-01 4.75e+02  -1.2 3.00e+02    -  9.04e-01 4.83e-01f  1
 193r 4.2890911e+05 3.27e-01 3.53e+02  -1.2 5.75e+02    -  2.74e-01 9.95e-02h  1
 194r 4.2890909e+05 3.25e-01 1.09e+02  -1.2 1.02e+02    -  1.00e+00 1.00e+00H  1
 195r 4.2890913e+05 3.26e-01 5.46e+01  -1.2 1.39e+02    -  1.00e+00 1.00e+00H  1
 196r 4.2890914e+05 3.29e-01 6.29e+02  -1.2 1.80e+02    -  8.41e-01 1.00e+00H  1
 197r 4.2890914e+05 3.26e-01 7.45e+02  -1.2 2.02e-01   4.5 1.34e-03 1.79e-02h  1
 198r 4.2890914e+05 3.26e-01 6.99e+03  -1.2 1.52e-01   4.9 6.82e-03 8.29e-02h  1
 199r 4.2890914e+05 3.26e-01 6.65e+03  -1.2 9.28e-02   5.4 2.51e-02 4.34e-03h  6
iter    objective    inf_pr   inf_du lg(mu)  ||d||  lg(rg) alpha_du alpha_pr  ls
 200r 4.2890914e+05 3.26e-01 6.85e+03  -1.2 4.28e-01   4.9 4.30e-02 1.50e-03h  5
 201r 4.2890914e+05 3.26e-01 6.54e+03  -1.2 8.23e-02   5.3 2.83e-02 7.89e-04h  9
 202r 4.2890914e+05 3.26e-01 6.43e+03  -1.2 8.54e-02   5.7 3.19e-02 5.18e-04h  8
 203r 4.2890914e+05 3.26e-01 4.17e+04  -1.2 7.54e-02   5.3 4.00e-02 3.73e-01h  1
 204r 4.2890914e+05 3.26e-01 5.76e+04  -1.2 7.59e-02   5.7 1.19e-01 1.14e-01f  2
 205r 4.2890914e+05 3.26e-01 8.49e+03  -1.2 6.88e-03   6.1 1.27e-02 2.50e-01f  3
 206r 4.2890914e+05 3.26e-01 4.69e+03  -1.2 1.18e-02   5.6 7.23e-01 9.74e-01f  1
 207r 4.2890914e+05 3.26e-01 4.48e+03  -1.2 3.19e-02   5.2 3.55e-01 6.10e-02h  1
 208r 4.2890914e+05 3.26e-01 4.06e+03  -1.2 2.98e-02   4.7 1.00e+00 2.22e-02H  1
 209r 4.2890914e+05 3.26e-01 4.01e+03  -1.2 1.76e+02    -  1.05e-02 1.23e-02f  1
iter    objective    inf_pr   inf_du lg(mu)  ||d||  lg(rg) alpha_du alpha_pr  ls
 210r 4.2890914e+05 3.26e-01 3.82e+03  -1.2 5.37e+01    -  7.82e-01 4.63e-02h  1
 211r 4.2890912e+05 3.25e-01 3.05e+03  -1.2 9.69e+01    -  8.97e-01 2.02e-01h  3
 212r 4.2890912e+05 3.25e-01 2.96e+03  -1.2 2.26e+02    -  2.14e-01 3.04e-02f  1
 213r 4.2890912e+05 3.25e-01 2.94e+03  -1.2 4.09e+02    -  6.71e-01 7.87e-03f  1
 214r 4.2890912e+05 3.25e-01 2.33e+03  -1.2 1.54e-02   4.2 2.18e-01 2.24e-01f  2
 215r 4.2890915e+05 3.27e-01 2.15e+03  -1.2 6.24e+02    -  5.53e-02 7.58e-02f  1
 216r 4.2890915e+05 3.26e-01 2.04e+03  -1.2 4.23e+02    -  1.00e+00 5.45e-02f  1
 217r 4.2890916e+05 3.26e-01 1.08e+02  -1.2 1.89e+02    -  1.00e+00 9.50e-01F  1
 218r 4.2890916e+05 3.26e-01 3.36e+01  -1.2 1.15e+02    -  1.00e+00 1.00e+00H  1
 219r 4.2890916e+05 3.26e-01 1.11e+01  -1.2 1.43e+02    -  1.00e+00 1.00e+00H  1
iter    objective    inf_pr   inf_du lg(mu)  ||d||  lg(rg) alpha_du alpha_pr  ls
 220r 4.2890916e+05 3.26e-01 3.24e+01  -1.2 1.58e+02    -  1.00e+00 1.00e+00H  1
 221r 4.2890916e+05 3.26e-01 3.20e+01  -1.2 1.73e+02    -  1.00e+00 1.00e+00H  1
 222r 4.2890916e+05 3.26e-01 1.33e+03  -1.2 2.00e+02    -  6.66e-01 2.23e-01h  2
 223r 4.2890909e+05 3.26e-01 4.72e+02  -1.2 2.70e+02    -  9.48e-01 6.58e-01f  1
 224r 4.2890910e+05 3.26e-01 4.56e+02  -1.2 1.04e+02    -  6.33e-01 2.94e-02h  2
 225r 4.2890916e+05 3.26e-01 2.64e+02  -1.2 8.58e+01    -  1.00e+00 1.00e+00H  1
 226r 4.2890915e+05 3.31e-01 7.99e+02  -1.2 1.26e+02    -  6.73e-01 7.46e-01H  1
 227r 4.2890915e+05 3.31e-01 7.82e+02  -1.2 7.70e+00   3.7 5.63e-05 2.17e-04h  1
 228r 4.2890915e+05 3.26e-01 6.66e+02  -1.2 1.10e+00   4.1 4.96e-04 2.53e-02h  1
 229r 4.2890915e+05 3.26e-01 1.73e+03  -1.2 2.01e-01   4.6 9.94e-02 8.13e-02h  1
iter    objective    inf_pr   inf_du lg(mu)  ||d||  lg(rg) alpha_du alpha_pr  ls
 230r 4.2890915e+05 3.26e-01 1.73e+03  -1.2 1.86e-01   4.1 1.15e-02 7.06e-03f  1
 231r 4.2890915e+05 3.26e-01 1.74e+03  -1.2 5.31e+03    -  8.22e-05 3.80e-03h  1
 232r 4.2890915e+05 3.26e-01 1.84e+03  -1.2 6.21e-02   3.6 3.25e-01 7.94e-03h  3
 233r 4.2890915e+05 3.26e-01 3.76e+03  -1.2 6.11e-02   3.1 4.92e-03 2.08e-01h  2
 234r 4.2890915e+05 3.26e-01 3.75e+03  -1.2 6.89e-01   3.6 7.15e-01 3.06e-03f  1
 235r 4.2890915e+05 3.26e-01 3.25e+03  -1.2 1.38e-02   3.1 4.86e-01 1.25e-01f  4
 236r 4.2890915e+05 3.26e-01 2.93e+03  -1.2 9.58e-03   2.6 1.00e+00 9.06e-02f  4
 237r 4.2890915e+05 3.26e-01 7.57e+03  -1.2 1.05e-02   2.1 1.00e+00 6.25e-02f  5
 238r 4.2890915e+05 3.26e-01 7.05e+03  -1.2 5.22e+02    -  7.03e-01 7.84e-02f  1
 239r 4.2890915e+05 3.26e-01 1.30e+03  -1.2 6.03e+02    -  4.19e-01 1.31e-01h  1
iter    objective    inf_pr   inf_du lg(mu)  ||d||  lg(rg) alpha_du alpha_pr  ls
 240r 4.2890916e+05 3.27e-01 9.36e+02  -1.2 3.82e+02    -  5.86e-01 8.81e-02f  1
 241r 4.2890916e+05 3.26e-01 8.89e+01  -1.2 1.99e+02    -  1.00e+00 9.77e-01F  1
 242r 4.2890916e+05 3.26e-01 1.41e+03  -1.2 1.29e+02    -  1.00e+00 4.07e-01h  2
 243r 4.2890915e+05 3.26e-01 1.21e+03  -1.2 1.78e+02    -  1.00e+00 1.18e-01f  2
 244r 4.2890908e+05 3.26e-01 4.94e+02  -1.2 1.61e+02    -  1.00e+00 1.00e+00f  1
 245r 4.2890916e+05 3.26e-01 4.07e+02  -1.2 2.09e+02    -  1.00e+00 1.00e+00H  1
 246r 4.2890915e+05 3.26e-01 6.37e+02  -1.2 1.12e+02    -  1.91e-01 9.84e-02h  2
 247r 4.2890916e+05 3.26e-01 5.27e+02  -1.2 8.25e+01    -  1.00e+00 1.00e+00H  1
 248r 4.2890915e+05 3.26e-01 7.48e+02  -1.2 8.37e+01    -  1.36e-01 8.11e-02h  2
 249r 4.2890916e+05 3.29e-01 8.27e+02  -1.2 5.33e+01    -  1.00e+00 1.00e+00H  1
iter    objective    inf_pr   inf_du lg(mu)  ||d||  lg(rg) alpha_du alpha_pr  ls
 250r 4.2890915e+05 3.27e-01 8.55e+02  -1.2 2.84e+02    -  6.25e-03 5.81e-03h  2
 251r 4.2890914e+05 3.26e-01 1.15e+03  -1.2 9.07e+01    -  1.12e-01 4.07e-02h  2
 252r 4.2890914e+05 3.26e-01 1.00e+03  -1.2 5.30e+01    -  5.08e-01 6.39e-02h  3
 253r 4.2890916e+05 3.31e-01 9.44e+02  -1.2 1.94e+01    -  1.00e+00 8.65e-01H  1
 254r 4.2890916e+05 3.27e-01 2.72e+02  -1.2 5.06e+01    -  3.26e-04 3.16e-02h  4
 255r 4.2890916e+05 3.26e-01 2.99e+02  -1.2 1.67e+02    -  1.00e+00 1.00e+00H  1
 256r 4.2890915e+05 3.26e-01 4.81e+02  -1.2 1.85e+02    -  9.50e-02 3.46e-02h  1
 257r 4.2890915e+05 3.31e-01 8.09e+02  -1.2 1.48e+02    -  3.40e-01 2.37e-01H  1
 258r 4.2890915e+05 3.28e-01 7.14e+02  -1.2 5.02e-01   4.4 1.70e-04 8.79e-03h  1
 259r 4.2890915e+05 3.26e-01 7.52e+03  -1.2 2.00e-01   4.8 6.57e-03 8.72e-02h  1
iter    objective    inf_pr   inf_du lg(mu)  ||d||  lg(rg) alpha_du alpha_pr  ls
 260r 4.2890915e+05 3.26e-01 7.19e+03  -1.2 9.97e-02   5.2 2.41e-02 5.12e-03h  6
 261r 4.2890915e+05 3.26e-01 6.92e+03  -1.2 9.29e-02   5.6 2.99e-02 1.15e-03h  7
 262r 4.2890915e+05 3.26e-01 6.92e+03  -1.2 8.02e-02   5.2 6.45e-02 6.75e-05h 13
 263r 4.2890915e+05 3.26e-01 6.92e+03  -1.2 8.94e-02   5.6 2.75e-02 1.71e-05h 14
 264r 4.2890915e+05 3.26e-01 6.77e+04  -1.2 9.02e-02   5.1 1.36e-01 3.84e-01h  1
 265r 4.2890915e+05 3.26e-01 6.96e+04  -1.2 3.46e-01   5.5 4.75e-02 3.12e-02H  1
 266r 4.2890915e+05 3.26e-01 6.41e+04  -1.2 3.18e-02   6.0 3.58e-01 1.28e-01f  1
 267r 4.2890915e+05 3.26e-01 5.19e+04  -1.2 8.31e-03   6.4 3.02e-02 2.50e-01f  3
 268r 4.2890915e+05 3.26e-01 3.62e+04  -1.2 8.99e-03   5.9 5.28e-02 2.50e-01f  3
 269r 4.2890915e+05 3.26e-01 3.61e+04  -1.2 1.78e-02   5.4 1.98e-01 1.25e-01f  4
iter    objective    inf_pr   inf_du lg(mu)  ||d||  lg(rg) alpha_du alpha_pr  ls
 270r 4.2890915e+05 3.26e-01 4.35e+04  -1.2 2.62e-03   5.9 1.00e+00 1.00e+00F  1
 271r 4.2890915e+05 3.26e-01 3.59e+04  -1.2 5.39e-03   5.4 1.00e+00 1.87e-01f  1
 272r 4.2890915e+05 3.26e-01 8.29e+04  -1.2 9.07e-03   4.9 1.08e-01 4.68e-01F  1
 273r 4.2890915e+05 3.26e-01 7.61e+04  -1.2 7.47e-02   4.4 1.00e+00 7.83e-02f  1
 274r 4.2890915e+05 3.26e-01 7.45e+04  -1.2 3.55e-02   4.0 6.13e-01 2.07e-02h  1
 275r 4.2890915e+05 3.26e-01 3.36e+04  -1.2 6.22e-02   3.5 1.00e+00 3.83e-01h  1
 276r 4.2890915e+05 3.26e-01 1.64e+05  -1.2 3.19e-02   3.0 1.00e+00 1.08e-01F  1
 277r 4.2890915e+05 3.26e-01 1.71e+05  -1.2 4.20e-02   2.5 4.53e-01 1.56e-02h  7
 278r 4.2890915e+05 3.26e-01 1.96e+05  -1.2 4.50e-02   2.1 1.00e+00 1.56e-02h  7
 279r 4.2890915e+05 3.26e-01 2.08e+05  -1.2 4.55e-02   1.6 7.13e-01 7.81e-03h  8
iter    objective    inf_pr   inf_du lg(mu)  ||d||  lg(rg) alpha_du alpha_pr  ls
 280r 4.2890915e+05 3.26e-01 2.53e+05  -1.2 4.62e-02   2.0 1.00e+00 7.81e-03h  8
 281r 4.2890915e+05 3.26e-01 2.78e+05  -1.2 4.77e-02   1.5 6.71e-01 3.91e-03h  9
 282r 4.2890915e+05 3.26e-01 4.03e+05  -1.2 4.86e-02   1.9 1.00e+00 3.91e-03h  9
 283r 4.2890915e+05 3.26e-01 4.93e+05  -1.2 5.10e-02   1.5 6.37e-01 1.95e-03h 10
 284r 4.2890915e+05 3.26e-01 5.38e+05  -1.2 5.20e-02   1.9 8.16e-01 9.77e-04h 11
 285r 4.2890915e+05 3.26e-01 7.36e+05  -1.2 5.25e-02   1.4 4.34e-01 9.77e-04h 11
 286r 4.2890915e+05 3.26e-01 9.10e+05  -1.2 8.27e-02   1.8 3.51e-01 5.32e-04h 10
 287r 4.2890915e+05 3.26e-01 1.47e+04  -1.2 5.91e-02   1.4 4.48e-01 1.00e+00w  1
 288r 4.2890914e+05 3.26e-01 1.44e+04  -1.2 5.55e+02    -  4.68e-02 2.08e-02w  1
 289r 4.2890906e+05 3.24e-01 1.38e+04  -1.2 1.77e+03    -  1.43e-02 3.94e-02w  1
iter    objective    inf_pr   inf_du lg(mu)  ||d||  lg(rg) alpha_du alpha_pr  ls
 290r 4.2890915e+05 3.26e-01 9.79e+05  -1.2 2.27e+03    -  4.48e-01 2.44e-04h 12
 291r 4.2890915e+05 3.26e-01 1.23e+07  -1.2 9.08e-02   1.8 3.52e-01 2.64e-01h  1
 292r 4.2890915e+05 3.26e-01 3.15e+07  -1.2 1.51e-02   7.6 1.60e-04 1.02e-03H  1
 293r 4.2890915e+05 3.26e-01 4.32e+07  -1.2 1.46e-02   8.1 1.37e-03 8.01e-04f  2
 294r 4.2890915e+05 3.26e-01 9.27e+07  -1.2 5.78e-03   8.5 1.82e-04 5.20e-04f  3
 295r 4.2890915e+05 3.26e-01 1.54e+08  -1.2 4.27e-03   8.9 8.68e-03 1.33e-04f  5
 296r 4.2890915e+05 3.26e-01 1.63e+08  -1.2 2.28e-03   9.3 2.01e-03 2.93e-05f  8
 297r 4.2890915e+05 3.26e-01 3.25e+08  -1.2 1.43e-02   8.9 1.34e-04 5.78e-05H  1
 298r 4.2890915e+05 3.26e-01 5.75e+08  -1.2 7.94e-03   9.3 1.11e-02 9.44e-05f  5
 299r 4.2890915e+05 3.26e-01 6.13e+08  -1.2 4.09e-03   9.7 2.22e-04 2.14e-05f  8
iter    objective    inf_pr   inf_du lg(mu)  ||d||  lg(rg) alpha_du alpha_pr  ls
 300r 4.2890915e+05 3.26e-01 7.24e+08  -1.2 1.46e-01   9.2 1.67e-05 1.28e-06H  1
 301r 4.2890915e+05 3.26e-01 8.08e+08  -1.2 6.51e-03   9.7 4.36e-06 2.87e-05f  7
 302r 4.2890915e+05 3.26e-01 8.87e+08  -1.2 2.16e-03  10.1 7.54e-02 2.19e-05f  9
 303r 4.2890915e+05 3.26e-01 4.04e+09  -1.2 1.02e-02   9.6 2.53e-04 2.88e-04H  1
 304r 4.2890915e+05 3.26e-01 5.31e+09  -1.2 3.97e-02  10.0 1.49e-04 5.28e-05H  1
 305r 4.2890915e+05 3.26e-01 6.83e+09  -1.2 7.66e-03  10.5 1.17e-03 2.82e-04f  5
 306r 4.2890915e+05 3.26e-01 8.97e+09  -1.2 2.82e-03  10.9 6.36e-04 1.79e-04f  7
 307r 4.2890915e+05 3.26e-01 1.35e+10  -1.2 3.11e-02  10.4 1.74e-06 3.21e-05f  6
 308r 4.2890915e+05 3.26e-01 3.60e+10  -1.2 1.05e-02  10.8 9.09e-07 2.29e-05f  8
 309r 4.2890915e+05 3.26e-01 4.02e+10  -1.2 1.07e-02  11.3 4.96e-03 2.80e-06f 11
iter    objective    inf_pr   inf_du lg(mu)  ||d||  lg(rg) alpha_du alpha_pr  ls
 310r 4.2890915e+05 3.26e-01 2.38e+08  -1.2 2.75e-03  11.7 1.01e-04 1.11e-02f  1
 311r 4.2890915e+05 3.26e-01 7.01e+09  -1.2 1.19e-02  11.2 5.33e-03 2.99e-04h  1
 312r 4.2890915e+05 3.26e-01 6.97e+09  -1.2 2.93e-03  10.7 1.80e-05 1.04e-02f  1
 313r 4.2890915e+05 3.26e-01 6.97e+09  -1.2 5.47e-03  10.3 1.85e-03 5.62e-05h  1
 314r 4.2890915e+05 3.26e-01 6.97e+09  -1.2 9.70e-03   9.8 4.86e-02 3.44e-05h  1
 315r 4.2890915e+05 3.26e-01 6.97e+09  -1.2 1.26e-02   9.3 2.97e-04 8.97e-04h  1
 316r 4.2890915e+05 3.26e-01 6.97e+09  -1.2 1.49e-02   8.8 9.25e-04 3.44e-04h  1
 317r 4.2890915e+05 3.26e-01 6.93e+09  -1.2 1.54e-02   8.4 9.37e-02 4.53e-03h  1
 318r 4.2890915e+05 3.26e-01 6.85e+09  -1.2 2.09e-02   7.9 3.93e-03 1.22e-02h  1
 319r 4.2890915e+05 3.26e-01 6.71e+09  -1.2 1.61e-02   8.3 4.58e-02 2.04e-02h  1
iter    objective    inf_pr   inf_du lg(mu)  ||d||  lg(rg) alpha_du alpha_pr  ls
 320r 4.2890915e+05 3.26e-01 5.26e+09  -1.2 2.25e-02   7.8 1.16e-01 1.90e-01h  1
 321r 4.2890915e+05 3.26e-01 4.93e+09  -1.2 1.32e-01   7.3 3.96e-02 3.88e-02h  1
 322r 4.2890915e+05 3.26e-01 3.51e+09  -1.2 1.60e-02   7.8 6.10e-02 2.64e-01h  1
 323r 4.2890915e+05 3.26e-01 2.82e+09  -1.2 2.54e-02   7.3 3.44e-01 1.75e-01h  1
 324r 4.2890915e+05 3.26e-01 2.50e+09  -1.2 8.38e-03   7.7 3.53e-01 1.11e-01h  1
 325r 4.2890915e+05 3.26e-01 3.13e+07  -1.2 1.33e-02   7.2 3.90e-01 1.00e+00h  1
 326r 4.2890915e+05 3.26e-01 1.02e+06  -1.2 2.84e-04   6.8 9.97e-01 1.00e+00f  1
 327r 4.2890915e+05 3.26e-01 9.55e+05  -1.2 4.40e-03   6.3 4.52e-01 8.97e-02f  3
 328r 4.2890915e+05 3.26e-01 9.56e+05  -1.2 1.14e-03   6.7 3.27e-02 3.60e-04H  1
 329r 4.2890915e+05 3.26e-01 9.66e+05  -1.2 6.46e-03   6.2 4.17e-01 5.17e-02f  2
iter    objective    inf_pr   inf_du lg(mu)  ||d||  lg(rg) alpha_du alpha_pr  ls
 330r 4.2890915e+05 3.26e-01 9.72e+05  -1.2 1.02e-03   6.7 1.14e-02 6.54e-04H  1
 331r 4.2890915e+05 3.26e-01 1.16e+05  -1.2 9.74e-05   7.1 1.00e+00 1.00e+00f  1
 332r 4.2890915e+05 3.26e-01 9.00e+04  -1.2 2.47e-04   6.6 1.00e+00 1.00e+00f  1
 333r 4.2890915e+05 3.26e-01 2.57e+05  -1.2 8.41e-04   6.1 1.00e+00 1.00e+00F  1
 334r 4.2890915e+05 3.26e-01 2.84e+05  -1.2 6.70e-02   5.7 6.18e-02 1.04e-02f  4
 335r 4.2890915e+05 3.26e-01 2.79e+05  -1.2 3.11e-03   6.1 2.31e-01 6.16e-02f  4
 336r 4.2890915e+05 3.26e-01 2.55e+05  -1.2 6.29e-04   6.5 1.00e+00 1.25e-01f  4
 337r 4.2890915e+05 3.26e-01 3.81e+05  -1.2 2.40e-03   6.0 5.77e-01 6.61e-02f  4
 338r 4.2890915e+05 3.26e-01 4.12e+05  -1.2 7.50e-04   6.5 1.00e+00 3.12e-02f  6
 339r 4.2890915e+05 3.26e-01 6.00e+04  -1.2 7.82e-03   6.0 9.13e-02 5.97e-01f  1
iter    objective    inf_pr   inf_du lg(mu)  ||d||  lg(rg) alpha_du alpha_pr  ls
 340r 4.2890915e+05 3.26e-01 1.13e+05  -1.2 9.51e-02   5.5 7.66e-02 1.37e-02h  1
 341r 4.2890915e+05 3.26e-01 1.11e+05  -1.2 1.41e-02   5.0 1.00e+00 1.96e-02h  1
 342r 4.2890915e+05 3.26e-01 6.99e+04  -1.2 1.68e-02   4.6 1.00e+00 3.19e-01h  1
 343r 4.2890915e+05 3.26e-01 4.67e+04  -1.2 1.64e-02   4.1 1.00e+00 3.23e-01H  1
 344r 4.2890915e+05 3.26e-01 4.53e+04  -1.2 4.91e-02   3.6 1.00e+00 3.14e-02H  1
 345r 4.2890907e+05 3.23e-01 1.48e+04  -1.2 7.71e+02    -  8.16e-02 6.21e-01h  1
 346r 4.2890907e+05 3.23e-01 1.56e+04  -1.2 8.23e-02   4.0 3.01e-01 3.84e-02f  1
 347r 4.2890907e+05 3.23e-01 3.07e+04  -1.2 2.20e-02   4.5 1.00e+00 1.00e+00F  1
 348r 4.2890907e+05 3.23e-01 2.92e+04  -1.2 1.78e-02   4.9 5.45e-01 5.05e-02f  1
 349r 4.2890907e+05 3.23e-01 2.93e+04  -1.2 7.09e-02   4.4 9.35e-03 7.32e-02f  2
iter    objective    inf_pr   inf_du lg(mu)  ||d||  lg(rg) alpha_du alpha_pr  ls
 350r 4.2890907e+05 3.23e-01 2.93e+04  -1.2 1.60e-02   4.8 1.54e-02 6.59e-03F  1
 351r 4.2890907e+05 3.23e-01 2.92e+04  -1.2 5.28e-03   5.3 2.78e-01 1.45e-02F  1
 352r 4.2890907e+05 3.23e-01 2.78e+04  -1.2 1.77e-02   4.8 1.21e-01 1.11e-01f  2
 353r 4.2890907e+05 3.23e-01 2.88e+04  -1.2 1.14e-01   4.3 1.33e-02 1.47e-02f  1
 354r 4.2890907e+05 3.23e-01 3.07e+04  -1.2 1.64e-02   4.7 8.75e-01 5.69e-02f  3
 355r 4.2890907e+05 3.23e-01 3.89e+04  -1.2 7.39e-02   4.2 1.29e-02 2.03e-02f  6
 356r 4.2890907e+05 3.23e-01 4.27e+04  -1.2 6.15e-02   4.7 4.04e-02 5.82e-03h  7
 357r 4.2890907e+05 3.23e-01 5.04e+04  -1.2 7.38e-03   5.1 2.58e-01 7.74e-03F  1
 358r 4.2890907e+05 3.23e-01 5.26e+04  -1.2 4.09e-02   4.6 4.43e-02 7.26e-03f  1
 359r 4.2890907e+05 3.23e-01 8.27e+04  -1.2 5.96e-01   4.1 1.55e-02 1.65e-03f  4
iter    objective    inf_pr   inf_du lg(mu)  ||d||  lg(rg) alpha_du alpha_pr  ls
 360r 4.2890907e+05 3.23e-01 2.89e+05  -1.2 9.49e-02   4.6 4.90e-03 2.59e-03f  6
 361r 4.2890907e+05 3.23e-01 6.61e+05  -1.2 1.01e-02   5.9 9.00e-03 3.28e-03H  1
 362r 4.2890907e+05 3.23e-01 6.86e+05  -1.2 8.65e-03   6.3 9.72e-03 1.96e-03h  1
 363r 4.2890907e+05 3.23e-01 1.10e+06  -1.2 8.84e-02   5.8 4.90e-05 6.80e-04f  4
 364r 4.2890907e+05 3.23e-01 1.33e+06  -1.2 6.11e-02   6.3 3.39e-04 1.95e-04H  1
 365r 4.2890907e+05 3.23e-01 1.56e+06  -1.2 3.04e-02   6.7 3.72e-03 1.15e-03f  4
 366r 4.2890907e+05 3.23e-01 1.67e+06  -1.2 1.18e-01   6.2 2.77e-04 5.88e-05H  1
 367r 4.2890907e+05 3.23e-01 1.82e+06  -1.2 1.37e-02   6.6 6.88e-04 6.86e-04f  2
 368r 4.2890907e+05 3.23e-01 2.10e+06  -1.2 3.64e-03   7.1 1.72e-02 8.91e-04h  3
 369r 4.2890907e+05 3.23e-01 2.55e+06  -1.2 4.24e-02   6.6 3.94e-04 1.49e-04H  1
iter    objective    inf_pr   inf_du lg(mu)  ||d||  lg(rg) alpha_du alpha_pr  ls
 370r 4.2890907e+05 3.23e-01 2.92e+06  -1.2 2.03e-01   6.1 3.37e-05 1.14e-04f  3
 371r 4.2890907e+05 3.23e-01 2.39e+07  -1.2 4.40e-03   7.5 1.09e-02 9.20e-04f  4
 372r 4.2890907e+05 3.23e-01 4.99e+07  -1.2 1.22e-02   7.9 2.25e-04 8.93e-05H  1
 373r 4.2890907e+05 3.23e-01 7.66e+07  -1.2 1.16e-02   8.3 1.32e-04 1.20e-04f  3
 374r 4.2890907e+05 3.23e-01 9.71e+07  -1.2 4.85e-03   8.7 8.26e-04 5.37e-05f  5
 375r 4.2890907e+05 3.23e-01 1.24e+08  -1.2 1.91e-03   9.2 8.57e-03 3.27e-05f  7
 376r 4.2890907e+05 3.23e-01 2.35e+08  -1.2 1.35e-02   8.7 5.72e-05 2.05e-05H  1
 377r 4.2890907e+05 3.23e-01 3.87e+08  -1.2 7.72e-03   9.1 1.96e-04 4.22e-05f  5
 378r 4.2890907e+05 3.23e-01 2.81e+09  -1.2 3.71e-03   9.5 3.57e-04 2.07e-05f  7
WARNING: Problem in step computation; switching to emergency mode.
 379r 4.2890907e+05 3.23e-01 2.81e+09  -1.2 3.71e-03  19.8 0.00e+00 0.00e+00R  1
WARNING: Problem in step computation; switching to emergency mode.
Restoration phase is called at point that is almost feasible,
  with constraint violation 0.000000e+00. Abort.
Restoration phase in the restoration phase failed.

Number of Iterations....: 379

                                   (scaled)                 (unscaled)
Objective...............:   4.2890906816593750e+05    4.2890906816593750e+05
Dual infeasibility......:   2.8103561367698226e+09    2.8103561367698226e+09
Constraint violation....:   3.2266963264172266e-01    3.2266963264172266e-01
Complementarity.........:   7.2790499321686228e-02    7.2790499321686228e-02
Overall NLP error.......:   2.8103561367698226e+09    2.8103561367698226e+09


Number of objective function evaluations             = 1299
Number of objective gradient evaluations             = 81
Number of equality constraint evaluations            = 1299
Number of inequality constraint evaluations          = 0
Number of equality constraint Jacobian evaluations   = 393
Number of inequality constraint Jacobian evaluations = 0
Number of Lagrangian Hessian evaluations             = 380
Total CPU secs in IPOPT (w/o function evaluations)   =      0.816
Total CPU secs in NLP function evaluations           =     13.231

EXIT: Restoration Failed!
